#************************************************************************************
#*                   Generated by cif2cell 2.0.0 2023-08-02 17:31                   *
#*  T. Bjorkman, Comp. Phys. Commun. 182, 1183-1186 (2011). Please cite generously. *
#*                                                                                  *
#*                Data obtained from ICSD. Reference number : 43094                 *
#*                                     Si   ()                                      *
#* Failed to get author information, Journal of Alloys and Compounds 895, - (2022)  *
#************************************************************************************

%BLOCK LATTICE_CART
ang    # angstrom units
   2.658000000000000   2.658000000000000   0.000000000000000
   2.658000000000000   0.000000000000000   2.658000000000000
   0.000000000000000   2.658000000000000   2.658000000000000
%ENDBLOCK LATTICE_CART

%BLOCK POSITIONS_FRAC
Si   0.050000000000000   0.000000000000000   0.000000000000000 
Si   0.250000000000000   0.250000000000000   0.250000000000000 
%ENDBLOCK POSITIONS_FRAC



##############################
# ADDED FOR CONVERGENCE TEST #
##############################

KPOINT_MP_GRID : 5 5 5

